Route #1: 9 22 13 11 6 4 37
Route #2: 44 46 2 7
Route #3: 38 34 35 18 15 47 27
Route #4: 33 17 39 41 16 12
Route #5: 5 31 20 28 14 24 29
Route #6: 26 42 45 51 49 19 30
Route #7: 8 32 43 21 3 52
Route #8: 36 10 50 40 48 54
Route #9: 23 55 53 25
cost 1243
